GLPSOL--GLPK LP/MIP Solver 5.0
Parameter(s) specified in the command line:
 --lp ./Instances/small/optimizedinstance62.lp -o ./Instances/small/solutions/optimizedinstance62.out
 --log ./Instances/small/solutions/optimizedinstance62.glplog
Reading problem data from './Instances/small/optimizedinstance62.lp'...
372 rows, 375 columns, 28951 non-zeros
375 integer variables, all of which are binary
752 lines were read
GLPK Integer Optimizer 5.0
372 rows, 375 columns, 28951 non-zeros
375 integer variables, all of which are binary
Preprocessing...
372 rows, 375 columns, 28951 non-zeros
375 integer variables, all of which are binary
Scaling...
 A: min|aij| =  1.000e+00  max|aij| =  1.980e+02  ratio =  1.980e+02
GM: min|aij| =  7.180e-02  max|aij| =  1.393e+01  ratio =  1.940e+02
EQ: min|aij| =  5.197e-03  max|aij| =  1.000e+00  ratio =  1.924e+02
2N: min|aij| =  3.906e-03  max|aij| =  1.562e+00  ratio =  4.000e+02
Constructing initial basis...
Size of triangular part is 372
Solving LP relaxation...
GLPK Simplex Optimizer 5.0
372 rows, 375 columns, 28951 non-zeros
*     0: obj =  -0.000000000e+00 inf =   0.000e+00 (375)
*   321: obj =   2.129775603e+03 inf =   0.000e+00 (0) 1
OPTIMAL LP SOLUTION FOUND
Integer optimization begins...
Long-step dual simplex will be used
+   321: mip =     not found yet <=              +inf        (1; 0)
+   768: mip =     not found yet <=   2.111000000e+03        (123; 0)
+   851: >>>>>   9.800000000e+01 <=   2.111000000e+03        (184; 0)
+  1232: >>>>>   1.070000000e+02 <=   2.105000000e+03        (308; 3)
+  1865: mip =   1.070000000e+02 <=   2.097000000e+03        (427; 9)
+  2376: mip =   1.070000000e+02 <=   2.096000000e+03        (559; 10)
+  2788: mip =   1.070000000e+02 <=   2.095000000e+03        (677; 11)
+  3464: mip =   1.070000000e+02 <=   2.092000000e+03        (806; 13)
+  3965: mip =   1.070000000e+02 <=   2.084000000e+03        (943; 14)
+  4519: mip =   1.070000000e+02 <=   2.082000000e+03        (1110; 15)
+  5040: mip =   1.070000000e+02 <=   2.080000000e+03        (1224; 17)
+  5595: mip =   1.070000000e+02 <=   2.072000000e+03        (1349; 18)
+  6072: mip =   1.070000000e+02 <=   2.068000000e+03        (1483; 19)
Time used: 60.0 secs.  Memory used: 5.9 Mb.
+  6490: mip =   1.070000000e+02 <=   2.059000000e+03        (1609; 20)
+  6923: mip =   1.070000000e+02 <=   2.048000000e+03        (1767; 21)
+  7285: mip =   1.070000000e+02 <=   2.047000000e+03        (1871; 22)
+  7682: mip =   1.070000000e+02 <=   2.043000000e+03        (1963; 23)
+  8081: mip =   1.070000000e+02 <=   2.039000000e+03        (2068; 24)
+  8736: mip =   1.070000000e+02 <=   2.027000000e+03        (2182; 26)
+  9081: mip =   1.070000000e+02 <=   2.020000000e+03        (2288; 27)
+  9466: mip =   1.070000000e+02 <=   2.020000000e+03        (2399; 28)
+ 10202: mip =   1.070000000e+02 <=   2.011000000e+03        (2556; 30)
+ 11475: mip =   1.070000000e+02 <=   2.001000000e+03        (2851; 33)
+ 11899: mip =   1.070000000e+02 <=   2.000000000e+03        (2975; 34)
+ 12489: mip =   1.070000000e+02 <=   1.994000000e+03        (3108; 36)
Time used: 120.0 secs.  Memory used: 7.0 Mb.
+ 12822: mip =   1.070000000e+02 <=   1.994000000e+03        (3248; 36)
+ 13362: mip =   1.070000000e+02 <=   1.986000000e+03        (3369; 38)
+ 13575: mip =   1.070000000e+02 <=   1.986000000e+03        (3481; 38)
+ 14257: mip =   1.070000000e+02 <=   1.982000000e+03        (3605; 40)
+ 14749: mip =   1.070000000e+02 <=   1.975000000e+03        (3775; 41)
+ 15445: mip =   1.070000000e+02 <=   1.968000000e+03        (3911; 43)
+ 16347: mip =   1.070000000e+02 <=   1.960000000e+03        (4074; 46)
+ 16632: mip =   1.070000000e+02 <=   1.959000000e+03        (4177; 47)
+ 17221: mip =   1.070000000e+02 <=   1.948000000e+03        (4357; 48)
+ 18269: mip =   1.070000000e+02 <=   1.932000000e+03        (4588; 51)
+ 18752: mip =   1.070000000e+02 <=   1.926000000e+03        (4753; 52)
+ 19666: mip =   1.070000000e+02 <=   1.910000000e+03        (4883; 55)
Time used: 180.1 secs.  Memory used: 8.1 Mb.
+ 20169: mip =   1.070000000e+02 <=   1.900000000e+03        (5028; 56)
+ 20651: mip =   1.070000000e+02 <=   1.885000000e+03        (5174; 57)
+ 21271: mip =   1.070000000e+02 <=   1.881000000e+03        (5315; 59)
+ 21691: mip =   1.070000000e+02 <=   1.867000000e+03        (5443; 60)
+ 22132: mip =   1.070000000e+02 <=   1.867000000e+03        (5584; 61)
+ 22542: mip =   1.070000000e+02 <=   1.867000000e+03        (5716; 62)
+ 23199: mip =   1.070000000e+02 <=   1.861000000e+03        (5855; 64)
+ 23649: mip =   1.070000000e+02 <=   1.848000000e+03        (5995; 65)
+ 24201: mip =   1.070000000e+02 <=   1.844000000e+03        (6133; 67)
+ 24668: mip =   1.070000000e+02 <=   1.840000000e+03        (6272; 68)
+ 25063: mip =   1.070000000e+02 <=   1.839000000e+03        (6414; 69)
+ 25589: mip =   1.070000000e+02 <=   1.838000000e+03        (6537; 71)
Time used: 240.1 secs.  Memory used: 9.3 Mb.
+ 26054: mip =   1.070000000e+02 <=   1.837000000e+03        (6637; 72)
+ 26340: mip =   1.070000000e+02 <=   1.829000000e+03        (6741; 73)
+ 26954: mip =   1.070000000e+02 <=   1.816000000e+03        (6889; 75)
+ 27408: mip =   1.070000000e+02 <=   1.815000000e+03        (7005; 76)
+ 27882: mip =   1.070000000e+02 <=   1.813000000e+03        (7132; 78)
+ 28274: mip =   1.070000000e+02 <=   1.807000000e+03        (7250; 79)
+ 28883: mip =   1.070000000e+02 <=   1.801000000e+03        (7363; 81)
+ 29208: mip =   1.070000000e+02 <=   1.794000000e+03        (7489; 82)
+ 29651: mip =   1.070000000e+02 <=   1.793000000e+03        (7598; 83)
+ 30045: mip =   1.070000000e+02 <=   1.790000000e+03        (7713; 84)
+ 30608: mip =   1.070000000e+02 <=   1.784000000e+03        (7824; 86)
+ 31049: mip =   1.070000000e+02 <=   1.783000000e+03        (7924; 87)
Time used: 300.2 secs.  Memory used: 10.1 Mb.
+ 31335: mip =   1.070000000e+02 <=   1.773000000e+03        (8024; 88)
+ 31729: mip =   1.070000000e+02 <=   1.757000000e+03        (8145; 89)
+ 32224: mip =   1.070000000e+02 <=   1.746000000e+03        (8267; 91)
+ 32527: mip =   1.070000000e+02 <=   1.742000000e+03        (8387; 92)
+ 33154: mip =   1.070000000e+02 <=   1.735000000e+03        (8500; 94)
+ 33473: mip =   1.070000000e+02 <=   1.730000000e+03        (8627; 95)
+ 33858: mip =   1.070000000e+02 <=   1.729999509e+03        (8745; 96)
+ 34220: mip =   1.070000000e+02 <=   1.720000000e+03        (8837; 97)
+ 34787: mip =   1.070000000e+02 <=   1.718000000e+03        (8956; 99)
+ 35202: mip =   1.070000000e+02 <=   1.707000000e+03        (9083; 100)
+ 35768: mip =   1.070000000e+02 <=   1.687000000e+03        (9243; 102)
+ 36204: mip =   1.070000000e+02 <=   1.685000000e+03        (9402; 103)
Time used: 360.2 secs.  Memory used: 11.0 Mb.
+ 37009: mip =   1.070000000e+02 <=   1.667000000e+03        (9574; 106)
+ 37506: mip =   1.070000000e+02 <=   1.662000000e+03        (9723; 108)
+ 38123: mip =   1.070000000e+02 <=   1.640000000e+03        (9873; 110)
+ 38836: mip =   1.070000000e+02 <=   1.630000000e+03        (10019; 113)
+ 39289: mip =   1.070000000e+02 <=   1.630000000e+03        (10160; 114)
+ 39862: mip =   1.070000000e+02 <=   1.628000000e+03        (10351; 116)
+ 40467: mip =   1.070000000e+02 <=   1.626000000e+03        (10532; 118)
+ 40920: mip =   1.070000000e+02 <=   1.622000000e+03        (10669; 120)
+ 41601: mip =   1.070000000e+02 <=   1.620000000e+03        (10805; 122)
+ 42207: mip =   1.070000000e+02 <=   1.617000000e+03        (10952; 124)
+ 42902: mip =   1.070000000e+02 <=   1.610000000e+03        (11101; 127)
+ 43582: mip =   1.070000000e+02 <=   1.608000000e+03        (11244; 129)
Time used: 420.2 secs.  Memory used: 12.5 Mb.
+ 43984: mip =   1.070000000e+02 <=   1.608000000e+03        (11372; 130)
+ 44491: mip =   1.070000000e+02 <=   1.607000000e+03        (11506; 132)
+ 45083: mip =   1.070000000e+02 <=   1.603000000e+03        (11633; 134)
+ 45629: mip =   1.070000000e+02 <=   1.602000000e+03        (11766; 136)
+ 46142: mip =   1.070000000e+02 <=   1.601000000e+03        (11908; 138)
+ 46522: mip =   1.070000000e+02 <=   1.600000000e+03        (12054; 139)
+ 47026: mip =   1.070000000e+02 <=   1.597000000e+03        (12202; 141)
+ 47623: mip =   1.070000000e+02 <=   1.593000000e+03        (12351; 143)
+ 48155: mip =   1.070000000e+02 <=   1.589000000e+03        (12513; 145)
+ 48676: mip =   1.070000000e+02 <=   1.588000000e+03        (12664; 147)
+ 49230: mip =   1.070000000e+02 <=   1.587000000e+03        (12822; 149)
+ 49561: mip =   1.070000000e+02 <=   1.582000000e+03        (12955; 150)
Time used: 480.3 secs.  Memory used: 13.5 Mb.
+ 49951: mip =   1.070000000e+02 <=   1.580000000e+03        (13097; 151)
+ 50586: mip =   1.070000000e+02 <=   1.576000000e+03        (13246; 154)
+ 51087: mip =   1.070000000e+02 <=   1.575000000e+03        (13395; 156)
+ 51507: mip =   1.070000000e+02 <=   1.575000000e+03        (13520; 157)
+ 52086: mip =   1.070000000e+02 <=   1.573000000e+03        (13660; 159)
+ 52419: mip =   1.070000000e+02 <=   1.572000000e+03        (13807; 160)
+ 52942: mip =   1.070000000e+02 <=   1.570000000e+03        (13940; 162)
+ 53468: mip =   1.070000000e+02 <=   1.568000000e+03        (14081; 164)
+ 53942: mip =   1.070000000e+02 <=   1.567000000e+03        (14229; 166)
+ 54526: mip =   1.070000000e+02 <=   1.566000000e+03        (14375; 168)
+ 54912: mip =   1.070000000e+02 <=   1.565000000e+03        (14516; 169)
+ 55346: mip =   1.070000000e+02 <=   1.565000000e+03        (14656; 171)
Time used: 540.3 secs.  Memory used: 14.5 Mb.
+ 55697: mip =   1.070000000e+02 <=   1.562000000e+03        (14785; 172)
+ 56326: mip =   1.070000000e+02 <=   1.559000000e+03        (14940; 175)
+ 56750: mip =   1.070000000e+02 <=   1.558000000e+03        (15073; 176)
+ 57268: mip =   1.070000000e+02 <=   1.557000000e+03        (15216; 178)
+ 57789: mip =   1.070000000e+02 <=   1.556000000e+03        (15363; 180)
+ 58402: mip =   1.070000000e+02 <=   1.555000000e+03        (15504; 183)
+ 58904: mip =   1.070000000e+02 <=   1.552000000e+03        (15644; 185)
+ 59317: mip =   1.070000000e+02 <=   1.551000000e+03        (15789; 186)
+ 59825: mip =   1.070000000e+02 <=   1.549000000e+03        (15917; 188)
+ 60245: mip =   1.070000000e+02 <=   1.549000000e+03        (16046; 190)
+ 60558: mip =   1.070000000e+02 <=   1.546000000e+03        (16184; 191)
+ 61045: mip =   1.070000000e+02 <=   1.546000000e+03        (16319; 193)
Time used: 600.3 secs.  Memory used: 15.5 Mb.
+ 61435: mip =   1.070000000e+02 <=   1.545000000e+03        (16461; 194)
+ 62020: mip =   1.070000000e+02 <=   1.545000000e+03        (16599; 196)
+ 62541: mip =   1.070000000e+02 <=   1.543000000e+03        (16734; 198)
+ 62941: mip =   1.070000000e+02 <=   1.540000000e+03        (16875; 199)
+ 63455: mip =   1.070000000e+02 <=   1.537000000e+03        (17014; 201)
+ 64008: mip =   1.070000000e+02 <=   1.535000000e+03        (17192; 203)
+ 64682: mip =   1.070000000e+02 <=   1.533000000e+03        (17317; 206)
+ 65126: mip =   1.070000000e+02 <=   1.531000000e+03        (17459; 208)
+ 65526: mip =   1.070000000e+02 <=   1.530000000e+03        (17589; 209)
+ 65940: mip =   1.070000000e+02 <=   1.529000000e+03        (17727; 211)
+ 66288: mip =   1.070000000e+02 <=   1.529000000e+03        (17863; 212)
+ 66818: mip =   1.070000000e+02 <=   1.529000000e+03        (18010; 214)
Time used: 660.3 secs.  Memory used: 16.5 Mb.
+ 67395: mip =   1.070000000e+02 <=   1.528000000e+03        (18140; 216)
+ 67985: mip =   1.070000000e+02 <=   1.527000000e+03        (18279; 219)
+ 68386: mip =   1.070000000e+02 <=   1.526000000e+03        (18408; 220)
+ 68810: mip =   1.070000000e+02 <=   1.526000000e+03        (18554; 222)
+ 69342: mip =   1.070000000e+02 <=   1.524000000e+03        (18682; 224)
+ 69792: mip =   1.070000000e+02 <=   1.522000000e+03        (18819; 226)
+ 70295: mip =   1.070000000e+02 <=   1.521000000e+03        (18958; 228)
+ 70744: mip =   1.070000000e+02 <=   1.521000000e+03        (19096; 230)
+ 71020: mip =   1.070000000e+02 <=   1.521000000e+03        (19225; 230)
+ 71727: mip =   1.070000000e+02 <=   1.519000000e+03        (19372; 233)
+ 72400: mip =   1.070000000e+02 <=   1.519000000e+03        (19518; 236)
+ 73054: mip =   1.070000000e+02 <=   1.516000000e+03        (19651; 239)
Time used: 720.3 secs.  Memory used: 17.5 Mb.
+ 73589: mip =   1.070000000e+02 <=   1.515000000e+03        (19796; 241)
+ 73946: mip =   1.070000000e+02 <=   1.515000000e+03        (19920; 242)
+ 74669: mip =   1.070000000e+02 <=   1.514000000e+03        (20057; 245)
+ 75147: mip =   1.070000000e+02 <=   1.514000000e+03        (20184; 247)
+ 75457: mip =   1.070000000e+02 <=   1.514000000e+03        (20324; 249)
+ 75974: mip =   1.070000000e+02 <=   1.513000000e+03        (20470; 250)
+ 76605: mip =   1.070000000e+02 <=   1.512000000e+03        (20616; 253)
+ 77121: mip =   1.070000000e+02 <=   1.512000000e+03        (20767; 255)
+ 77665: mip =   1.070000000e+02 <=   1.511000000e+03        (20900; 257)
+ 78183: mip =   1.070000000e+02 <=   1.510000000e+03        (21040; 259)
+ 78677: mip =   1.070000000e+02 <=   1.510000000e+03        (21168; 261)
Time used: 780.3 secs.  Memory used: 19.2 Mb.
+ 79354: mip =   1.070000000e+02 <=   1.509000000e+03        (21315; 264)
+ 79767: mip =   1.070000000e+02 <=   1.509000000e+03        (21463; 265)
+ 80440: mip =   1.070000000e+02 <=   1.508000000e+03        (21602; 268)
